set T := 0 1 2;
set S := 0 1 2 3 4 5 6;
param Tnum := 2;
param c : 0 1 2 3 4 5 6 :=
0    1 0 0 0 0 0 0
1    0 1 1 0 0 0 0
2    0 0 0 1 1 1 1
;
param ps := 
0 0
1 0
2 0
3 1
4 1
5 2
6 2
;
param prod:  0 1 2 3 4 5 6 :=
0    1 0 0 0 0 0 0
1    0.000000 0.169540 0.824181 0.000000 0.000000 0.000000 0.000000
2    0.000000 0.000000 0.000000 0.091791 0.077749 0.077749 0.746432
;
param v:  0 1 2 3 4 5 6 :=
0    0 0 0 0 0 0 0
1    0.000000 13.241172 13241.172000 0.000000 0.000000 0.000000 0.000000
2    0.000000 0.000000 0.000000 13.241172 13241.172000 13.241172 13241.172000
;
